instances/generated/generated5.atsp
NAME:generated5.atsp
TYPE:ATSP
COMMENT:generatedFromCode
DIMENSION:5
EDGE_WEIGHT_TYPE:EXPLICIT
EDGE_WEIGHT_FORMAT:FULL_MATRIX
EDGE_WEIGHT_SECTION
0 147 11 382 349 
245 0 210 78 311 
100 224 0 360 422 
75 67 418 0 68 
419 416 488 209 0 
EOF