instances/generated/generated5.tsp
NAME:generated5.tsp
TYPE:TSP
COMMENT:generatedFromCode
DIMENSION:5
EDGE_WEIGHT_TYPE:EXPLICIT
EDGE_WEIGHT_FORMAT:FULL_MATRIX
EDGE_WEIGHT_SECTION
0 309 369 429 479 
309 0 195 375 480 
369 195 0 327 3 
429 375 327 0 227 
479 480 3 227 0 
EOF